data/MCDM/NO_CORR/GEN_FROM_60/10_ITEMS_1000_GEN/K5011W19.KNP.mps
NAME          BLANK   
ROWS
 N  OBJROW
 L  R0000000
COLUMNS
    C0000000  OBJROW     -298.         R0000000  532.        
    C0000001  OBJROW     -688.         R0000000  638.        
    C0000002  OBJROW     -843.         R0000000  384.        
    C0000003  OBJROW     -913.         R0000000  401.        
    C0000004  OBJROW     -290.         R0000000  358.        
    C0000005  OBJROW     -200.         R0000000  713.        
    C0000006  OBJROW     -131.         R0000000  42.         
    C0000007  OBJROW     -918.         R0000000  575.        
    C0000008  OBJROW     -973.         R0000000  355.        
    C0000009  OBJROW     -830.         R0000000  703.        
    C0000010  OBJROW     -997.         R0000000  652.        
RHS
    RHS       R0000000  14458.      
BOUNDS
 BV BOUND     C0000000  1.          
 BV BOUND     C0000001  1.          
 BV BOUND     C0000002  1.          
 BV BOUND     C0000003  1.          
 BV BOUND     C0000004  1.          
 BV BOUND     C0000005  1.          
 BV BOUND     C0000006  1.          
 BV BOUND     C0000007  1.          
 BV BOUND     C0000008  1.          
 BV BOUND     C0000009  1.          
 BV BOUND     C0000010  1.          
ENDATA
