data/MCDM/NO_CORR/GEN_FROM_60/10_ITEMS_1000_GEN/K5011W19.KNP.txt
N 11
M 12
LC 11
LC 12
LC 13
LC 14
LC 15
LC 16
LC 17
LC 18
LC 19
LC 20
LC 21
LR 1
LR 2
LR 3
LR 4
LR 5
LR 6
LR 7
LR 8
LR 9
LR 10
LR 11
LR 12
LO -298
LO -688
LO -843
LO -913
LO -290
LO -200
LO -131
LO -918
LO -973
LO -830
LO -997
OS 1
IC 228
IC 951
IC 724
IC 686
IC 58
IC 254
IC 61
IC 366
IC 699
IC 160
IC 643
IB 2415
